certificates/rado_a11_c172_N30.cnf
c Rad2 upper bound instance: x1 + 11*x2 - x3 = 172, interval [1,30]
p cnf 30 162
1 5 16 0
-1 -5 -16 0
1 16 17 0
-1 -16 -17 0
1 18 27 0
-1 -18 -27 0
2 6 16 0
-2 -6 -16 0
2 17 0
-2 -17 0
2 18 28 0
-2 -18 -28 0
3 7 16 0
-3 -7 -16 0
3 17 18 0
-3 -17 -18 0
3 18 29 0
-3 -18 -29 0
4 8 16 0
-4 -8 -16 0
4 17 19 0
-4 -17 -19 0
4 18 30 0
-4 -18 -30 0
5 9 16 0
-5 -9 -16 0
5 17 20 0
-5 -17 -20 0
6 10 16 0
-6 -10 -16 0
6 17 21 0
-6 -17 -21 0
7 11 16 0
-7 -11 -16 0
7 17 22 0
-7 -17 -22 0
1 8 15 0
-1 -8 -15 0
8 12 16 0
-8 -12 -16 0
8 17 23 0
-8 -17 -23 0
2 9 15 0
-2 -9 -15 0
9 13 16 0
-9 -13 -16 0
9 17 24 0
-9 -17 -24 0
3 10 15 0
-3 -10 -15 0
10 14 16 0
-10 -14 -16 0
10 17 25 0
-10 -17 -25 0
4 11 15 0
-4 -11 -15 0
11 15 16 0
-11 -15 -16 0
11 17 26 0
-11 -17 -26 0
5 12 15 0
-5 -12 -15 0
12 16 0
-12 -16 0
12 17 27 0
-12 -17 -27 0
6 13 15 0
-6 -13 -15 0
13 16 17 0
-13 -16 -17 0
13 17 28 0
-13 -17 -28 0
7 14 15 0
-7 -14 -15 0
14 16 18 0
-14 -16 -18 0
14 17 29 0
-14 -17 -29 0
8 15 0
-8 -15 0
15 16 19 0
-15 -16 -19 0
15 17 30 0
-15 -17 -30 0
9 15 16 0
-9 -15 -16 0
16 20 0
-16 -20 0
10 15 17 0
-10 -15 -17 0
16 17 21 0
-16 -17 -21 0
11 15 18 0
-11 -15 -18 0
16 18 22 0
-16 -18 -22 0
1 14 19 0
-1 -14 -19 0
12 15 19 0
-12 -15 -19 0
16 19 23 0
-16 -19 -23 0
2 14 20 0
-2 -14 -20 0
13 15 20 0
-13 -15 -20 0
16 20 24 0
-16 -20 -24 0
3 14 21 0
-3 -14 -21 0
14 15 21 0
-14 -15 -21 0
16 21 25 0
-16 -21 -25 0
4 14 22 0
-4 -14 -22 0
15 22 0
-15 -22 0
16 22 26 0
-16 -22 -26 0
5 14 23 0
-5 -14 -23 0
15 16 23 0
-15 -16 -23 0
16 23 27 0
-16 -23 -27 0
6 14 24 0
-6 -14 -24 0
15 17 24 0
-15 -17 -24 0
16 24 28 0
-16 -24 -28 0
7 14 25 0
-7 -14 -25 0
15 18 25 0
-15 -18 -25 0
16 25 29 0
-16 -25 -29 0
8 14 26 0
-8 -14 -26 0
15 19 26 0
-15 -19 -26 0
16 26 30 0
-16 -26 -30 0
9 14 27 0
-9 -14 -27 0
15 20 27 0
-15 -20 -27 0
10 14 28 0
-10 -14 -28 0
15 21 28 0
-15 -21 -28 0
11 14 29 0
-11 -14 -29 0
15 22 29 0
-15 -22 -29 0
1 13 30 0
-1 -13 -30 0
12 14 30 0
-12 -14 -30 0
15 23 30 0
-15 -23 -30 0
