certificates/rado_a11_c172_N30.drat
16 -27 -28 -30 0
-18 -16 -28 0
-16 -28 -29 -30 0
-28 -29 -30 0
d -16 -28 -29 -30 0
16 4 27 28 -30 0
-18 27 28 -30 0
27 28 -30 0
d -18 27 28 -30 0
18 -29 -30 0
17 4 1 -18 0
-29 -30 0
d -28 -29 -30 0
-17 -18 -30 0
-18 -30 0
d -17 -18 -30 0
17 -30 0
-30 0
-16 -17 0
d -16 -1 -17 0
-17 0
2 0
15 0
-8 0
-22 0
-9 0
23 0
7 0
24 0
-16 0
-14 0
12 0
20 0
26 0
13 0
1 0
21 0
4 0
18 0
5 0
10 0
29 0
27 0
-19 0
0
